INCAR created by Atomic Simulation Environment
 EDIFF = 1.00e-05
 GGA = PE
 PREC = Normal
 ISIF = 0
 NSW = 0
 NELM = 99
 ISTART = 0