Al Cu  H 
 1.0000000000000000
     8.1281206200000007    0.0000000000000000    0.0000000000000005
     0.0000000000000013    8.1281206200000007    0.0000000000000005
     0.0000000000000000    0.0000000000000000   23.2497206399999996
  32  16   1
Cartesian
  0.0000000000000003  2.0320301550000002  6.7811685199999996
  8.1281206200000025  6.0960904650000005  6.7811685199999996
  4.0640603099999986  2.0320301550000002  6.7811685199999996
  4.0640603100000012  6.0960904650000005  6.7811685200000014
  2.0320301550000002  0.0000000000000000  6.7811685199999996
  2.0320301549999997  4.0640603100000003  6.7811685199999996
  6.0960904650000005  0.0000000000000000  6.7811685199999996
  6.0960904650000014  4.0640603100000003  6.7811685200000014
  2.0320301550000002  0.0000000000000000  9.6873835999999987
  2.0320301549999997  4.0640603100000003  9.6873835999999987
  6.0960904650000005  0.0000000000000000  9.6873835999999987
  6.0960904650000014  4.0640603100000003  9.6873835999999987
  0.0000000000000003  2.0320301550000002  9.6873835999999987
  8.1281206200000025  6.0960904650000005  9.6873835999999987
  4.0640603099999986  2.0320301550000002  9.6873835999999987
  4.0640603100000012  6.0960904650000005  9.6873835999999987
  0.0000000000000003  2.0320301550000002 12.5935986799999995
  8.1281206200000025  6.0960904650000005 12.5935986799999995
  4.0640603099999986  2.0320301550000002 12.5935986799999995
  4.0640603100000012  6.0960904650000005 12.5935986799999995
  2.0320301550000002  0.0000000000000000 12.5935986799999995
  2.0320301549999997  4.0640603100000003 12.5935986799999995
  6.0960904650000005  0.0000000000000000 12.5935986799999995
  6.0960904650000014  4.0640603100000003 12.5935986799999995
  2.0320301550000002  0.0000000000000000 15.4998137599999986
  2.0320301549999997  4.0640603100000003 15.4998137599999986
  6.0960904650000005  0.0000000000000000 15.4998137599999986
  6.0960904650000014  4.0640603100000003 15.4998137599999968
  0.0000000000000003  2.0320301550000002 15.4998137599999986
  8.1281206200000025  6.0960904650000005 15.4998137600000003
  4.0640603099999986  2.0320301550000002 15.4998137599999986
  4.0640603100000012  6.0960904650000005 15.4998137599999968
  2.0320301550000006  2.0320301550000002  8.2342760599999991
  2.0320301550000011  6.0960904650000005  8.2342760599999991
  6.0960904650000014  2.0320301550000002  8.2342760599999991
  6.0960904650000014  6.0960904650000005  8.2342760599999991
  0.0000000000000000  0.0000000000000000 11.1404911399999982
  0.0000000000000007  4.0640603100000003 11.1404911399999982
  4.0640603100000003  0.0000000000000000 11.1404911399999982
  4.0640603100000012  4.0640603100000003 11.1404911399999982
  2.0320301550000006  2.0320301550000002 14.0467062199999990
  2.0320301550000011  6.0960904650000005 14.0467062199999990
  6.0960904650000014  2.0320301550000002 14.0467062199999990
  6.0960904650000014  6.0960904650000005 14.0467062199999990
  0.0000000000000000  0.0000000000000000 16.9529212999999963
  0.0000000000000007  4.0640603100000003 16.9529212999999963
  4.0640603100000003  0.0000000000000000 16.9529212999999963
  4.0640603100000012  4.0640603100000003 16.9529212999999963
 -0.0000000000000001 -0.0000000000000001 18.9529212999999963
