Ga  O 
 1.0000000000000000
     2.5297613163981425   -4.3816751310239086    0.0000000000000000
     2.5297613163981425    4.3816751310239086    0.0000000000000000
     0.0000000000000000    0.0000000000000000   13.6247976754092175
  12  18
Cartesian
  2.5297613163981425 -1.4605583770079695  2.5784190228358090
  2.5297613163981425  1.4605583770079693  4.2339798148687997
  0.0000000000000000  0.0000000000000000  1.9631802023005964
  2.5297613163981425  1.4605583770079698  0.3076194102676068
  2.5297613163981421  1.4605583770079695  7.1200182479722152
  0.0000000000000000  0.0000000000000000  8.7755790400052067
  2.5297613163981425 -1.4605583770079695  6.5047794274370023
  0.0000000000000000  0.0000000000000000  4.8492186354040125
  0.0000000000000000  0.0000000000000000 11.6616174731086204
  2.5297613163981421 -1.4605583770079698 13.3171782651416102
  2.5297613163981425  1.4605583770079693 11.0463786525734076
  2.5297613163981429 -1.4605583770079689  9.3908178605404178
  1.7629174754029822 -2.7887708710828565  1.1353998062841013
  1.7629174754029826 -0.1323458829330826  1.1353998062841013
  4.0634489983884627 -1.4605583770079702  1.1353998062841013
  0.7668438409951603  1.3282124940748870  3.4061994188523044
  3.5258349508059643 -0.0000000000000001  3.4061994188523044
  0.7668438409951598 -1.3282124940748861  3.4061994188523044
  1.7629174754029819  0.1323458829330825  5.6769990314205065
  1.7629174754029822  2.7887708710828574  5.6769990314205065
  4.0634489983884627  1.4605583770079691  5.6769990314205065
  3.2966051573933024 -0.1323458829330828  7.9477986439887092
  0.9960736344078219 -1.4605583770079702  7.9477986439887092
  3.2966051573933020 -2.7887708710828552  7.9477986439887092
  1.7629174754029822  3.0534626369490216 10.2185982565569127
  1.7629174754029822 -3.0534626369490216 10.2185982565569127
  1.5336876819903200 -0.0000000000000009 10.2185982565569127
  3.2966051573933028  2.7887708710828565 12.4893978691251153
  0.9960736344078219  1.4605583770079702 12.4893978691251153
  3.2966051573933020  0.1323458829330837 12.4893978691251153
